NAME: PointSet_Angle_45_9
TYPE: TSP
COMMENT: Points chosen discrete uniformly at random out of ${0, \ldots, 500}^2$.
DIMENSION: 45
EDGE_WEIGHT_TYPE: EUC_2D
NODE_COORD_SECTION
1 280 476
2 181 10
3 80 35
4 317 430
5 131 491
6 70 61
7 40 406
8 154 353
9 182 246
10 127 34
11 18 413
12 181 156
13 120 353
14 393 383
15 118 325
16 145 398
17 300 72
18 154 127
19 107 217
20 303 485
21 207 374
22 292 247
23 25 193
24 99 207
25 439 474
26 489 457
27 132 169
28 112 499
29 22 252
30 381 387
31 76 272
32 30 122
33 90 184
34 496 198
35 401 299
36 182 354
37 419 221
38 347 444
39 414 193
40 151 352
41 413 386
42 54 44
43 301 414
44 43 69
45 165 170
EOF
